537 539 538 540 176 177 178 187 188 186 182 179 181 180 169 168 170 171 172 175 174 173 108 109 107 542 541 543 544 545 546 547 103 104 105 106 117 123 122 121 120 119 118 95 96 97 98 554 553 552 99 100 102 101 551 550 559 560 561 562 549 548 564 563 565 566 475 476 477 478 479 480 481 482 483 484 485 486 489 488 533 532 531 530 233 232 234 235 236 237 240 239 238 246 247 245 244 243 242 241 248 249 250 251 252 254 253 255 256 257 300 299 258 259 260 261 262 263 264 265 266 298 297 296 295 294 293 270 269 268 267 271 272 273 274 275 292 291 290 289 288 276 277 278 279 282 281 280 287 286 285 284 283 334 335 336 337 338 339 333 332 331 330 340 341 344 343 342 366 329 328 327 326 325 324 323 373 322 321 320 319 317 318 305 306 304 307 303 301 302 508 507 506 509 510 511 512 513 514 515 516 517 522 521 523 526 527 528 529 490 491 492 493 525 524 494 472 473 471 495 520 518 519 497 496 470 469 468 467 466 465 464 463 462 461 452 453 499 500 501 498 502 503 504 505 308 309 310 311 451 312 313 316 314 315 377 378 379 380 381 445 444 443 442 446 447 448 449 450 441 440 439 431 382 386 385 383 384 410 411 412 356 357 358 359 360 401 402 403 400 406 405 404 409 408 407 399 398 397 387 388 389 390 392 391 393 394 376 375 374 395 396 371 372 370 369 368 367 365 345 346 364 363 361 362 347 348 349 350 351 354 355 353 352 415 416 414 413 417 418 419 420 421 422 423 424 425 426 427 428 429 430 432 433 434 435 436 437 438 454 455 456 457 458 459 460 571 572 573 0 1 2 3 4 5 6 7 8 9 10 11 12 13 14 15 16 17 18 19 20 568 569 570 474 567 29 28 27 26 25 24 21 23 22 31 30 32 36 37 38 35 33 34 558 557 556 555 46 45 44 41 40 39 42 43 47 48 49 54 53 55 56 83 84 51 52 50 91 92 93 94 89 90 87 86 85 82 57 58 59 81 80 79 61 60 63 62 78 88 77 76 64 75 74 73 72 71 65 66 67 68 70 69 124 125 126 127 128 129 130 116 115 110 111 114 112 113 131 132 133 134 135 136 137 138 139 140 141 151 150 149 152 148 147 153 145 146 142 143 144 158 157 159 156 155 154 160 161 162 163 167 166 164 165 203 204 202 201 200 199 198 205 206 207 208 209 210 211 212 213 214 215 216 217 223 224 222 221 220 218 219 193 194 195 196 197 184 183 185 192 191 190 226 225 189 227 228 229 230 231 534 487 535 536